CapLotSizing_PM/src/Instancias/TCLSHT/6i6p6m/NBA09.OUT
 CG ITER, OVMR, OVMRUB =           1   14556.8779297    7355.3994141
 CG ITER, OVMR, OVMRUB =           2    9962.1064453    7355.3994141
 CG ITER, OVMR, OVMRUB =           3    9962.1064453    7355.3994141
 CG ITER, OVMR, OVMRUB =           4    9962.1064453    7355.3994141
 CG ITER, OVMR, OVMRUB =           5    9962.1064453    7355.3994141
 CG ITER, OVMR, OVMRUB =           6    9962.1064453    7355.3994141
 CG ITER, OVMR, OVMRUB =           7    9962.1064453    7355.3994141
 CG ITER, OVMR, OVMRUB =           8    9962.1064453    7355.3994141
 CG ITER, OVMR, OVMRUB =           9    9962.1064453    7355.3994141
 CG ITER, OVMR, OVMRUB =          10    9962.1064453    7355.3994141
OVLB =    9962.1064453 OVLUB =    7355.3994141 TIME =       0.3900000
